db/data/16281957288502555520672298372945932124.z3.out
sat
-------------------
133.731089662
